c mc2025_track1_093 from the Model Counting Competition 2025: the primal graph of a CNF with 1843 variables and 5216 clauses
p tw 1843 4335
21 97
21 98
26 27
26 28
26 29
26 38
26 39
26 40
26 41
26 62
26 98
26 103
26 172
26 512
26 853
26 1348
27 28
27 29
27 38
27 39
27 40
27 41
27 63
27 98
27 104
27 174
27 514
27 855
27 1350
28 29
28 38
28 39
28 40
28 41
28 64
28 98
28 105
28 176
28 516
28 857
28 1352
29 38
29 39
29 40
29 41
29 65
29 98
29 106
29 178
29 518
29 859
29 1354
30 31
30 32
30 33
30 42
30 43
30 44
30 45
30 70
30 98
30 111
30 188
30 528
30 869
30 1364
31 32
31 33
31 42
31 43
31 44
31 45
31 71
31 98
31 112
31 190
31 530
31 871
31 1366
32 33
32 42
32 43
32 44
32 45
32 72
32 98
32 113
32 192
32 532
32 873
32 1368
33 42
33 43
33 44
33 45
33 73
33 98
33 114
33 194
33 534
33 875
33 1370
34 35
34 36
34 37
34 46
34 47
34 48
34 49
34 78
34 98
34 119
34 204
34 544
34 885
34 1380
35 36
35 37
35 46
35 47
35 48
35 49
35 79
35 98
35 120
35 206
35 546
35 887
35 1382
36 37
36 46
36 47
36 48
36 49
36 80
36 98
36 121
36 208
36 548
36 889
36 1384
37 46
37 47
37 48
37 49
37 81
37 98
37 122
37 210
37 550
37 891
37 1386
38 39
38 40
38 41
38 58
38 98
38 99
38 164
38 504
38 845
38 1340
39 40
39 41
39 59
39 98
39 100
39 166
39 506
39 847
39 1342
40 41
40 60
40 98
40 101
40 168
40 508
40 849
40 1344
41 61
41 98
41 102
41 170
41 510
41 851
41 1346
42 43
42 44
42 45
42 66
42 98
42 107
42 180
42 520
42 861
42 1356
43 44
43 45
43 67
43 98
43 108
43 182
43 522
43 863
43 1358
44 45
44 68
44 98
44 109
44 184
44 524
44 865
44 1360
45 69
45 98
45 110
45 186
45 526
45 867
45 1362
46 47
46 48
46 49
46 74
46 98
46 115
46 196
46 536
46 877
46 1372
47 48
47 49
47 75
47 98
47 116
47 198
47 538
47 879
47 1374
48 49
48 76
48 98
48 117
48 200
48 540
48 881
48 1376
49 77
49 98
49 118
49 202
49 542
49 883
49 1378
50 51
50 52
50 53
50 54
50 55
50 56
50 57
50 82
50 98
50 123
50 212
50 552
50 893
50 1388
51 52
51 53
51 54
51 55
51 56
51 57
51 83
51 98
51 124
51 214
51 554
51 895
51 1390
52 53
52 54
52 55
52 56
52 57
52 84
52 98
52 125
52 216
52 556
52 897
52 1392
53 54
53 55
53 56
53 57
53 85
53 98
53 126
53 218
53 558
53 899
53 1394
54 55
54 56
54 57
54 86
54 98
54 127
54 220
54 560
54 901
54 1396
55 56
55 57
55 87
55 98
55 128
55 222
55 562
55 903
55 1398
56 57
56 88
56 98
56 129
56 224
56 564
56 905
56 1400
57 89
57 98
57 130
57 226
57 566
57 907
57 1402
58 59
58 60
58 61
58 62
58 63
58 64
58 65
58 98
58 131
58 164
58 504
58 846
58 1341
59 60
59 61
59 62
59 63
59 64
59 65
59 98
59 132
59 166
59 506
59 848
59 1343
60 61
60 62
60 63
60 64
60 65
60 98
60 133
60 168
60 508
60 850
60 1345
61 62
61 63
61 64
61 65
61 98
61 134
61 170
61 510
61 852
61 1347
62 63
62 64
62 65
62 98
62 135
62 172
62 512
62 854
62 1349
63 64
63 65
63 98
63 136
63 174
63 514
63 856
63 1351
64 65
64 98
64 137
64 176
64 516
64 858
64 1353
65 98
65 138
65 178
65 518
65 860
65 1355
66 67
66 68
66 69
66 70
66 71
66 72
66 73
66 98
66 139
66 180
66 520
66 862
66 1357
67 68
67 69
67 70
67 71
67 72
67 73
67 98
67 140
67 182
67 522
67 864
67 1359
68 69
68 70
68 71
68 72
68 73
68 98
68 141
68 184
68 524
68 866
68 1361
69 70
69 71
69 72
69 73
69 98
69 142
69 186
69 526
69 868
69 1363
70 71
70 72
70 73
70 98
70 143
70 188
70 528
70 870
70 1365
71 72
71 73
71 98
71 144
71 190
71 530
71 872
71 1367
72 73
72 98
72 145
72 192
72 532
72 874
72 1369
73 98
73 146
73 194
73 534
73 876
73 1371
74 75
74 76
74 77
74 78
74 79
74 80
74 81
74 98
74 147
74 196
74 536
74 878
74 1373
75 76
75 77
75 78
75 79
75 80
75 81
75 98
75 148
75 198
75 538
75 880
75 1375
76 77
76 78
76 79
76 80
76 81
76 98
76 149
76 200
76 540
76 882
76 1377
77 78
77 79
77 80
77 81
77 98
77 150
77 202
77 542
77 884
77 1379
78 79
78 80
78 81
78 98
78 151
78 204
78 544
78 886
78 1381
79 80
79 81
79 98
79 152
79 206
79 546
79 888
79 1383
80 81
80 98
80 153
80 208
80 548
80 890
80 1385
81 98
81 154
81 210
81 550
81 892
81 1387
82 83
82 84
82 85
82 86
82 87
82 88
82 89
82 98
82 155
82 212
82 552
82 894
82 1389
83 84
83 85
83 86
83 87
83 88
83 89
83 98
83 156
83 214
83 554
83 896
83 1391
84 85
84 86
84 87
84 88
84 89
84 98
84 157
84 216
84 556
84 898
84 1393
85 86
85 87
85 88
85 89
85 98
85 158
85 218
85 558
85 900
85 1395
86 87
86 88
86 89
86 98
86 159
86 220
86 560
86 902
86 1397
87 88
87 89
87 98
87 160
87 222
87 562
87 904
87 1399
88 89
88 98
88 161
88 224
88 564
88 906
88 1401
89 98
89 162
89 226
89 566
89 908
89 1403
95 96
95 97
95 502
96 97
96 844
98 99
98 100
98 101
98 102
98 103
98 104
98 105
98 106
98 107
98 108
98 109
98 110
98 111
98 112
98 113
98 114
98 115
98 116
98 117
98 118
98 119
98 120
98 121
98 122
98 123
98 124
98 125
98 126
98 127
98 128
98 129
98 130
98 131
98 132
98 133
98 134
98 135
98 136
98 137
98 138
98 139
98 140
98 141
98 142
98 143
98 144
98 145
98 146
98 147
98 148
98 149
98 150
98 151
98 152
98 153
98 154
98 155
98 156
98 157
98 158
98 159
98 160
98 161
98 162
163 195
163 228
163 845
163 846
163 909
164 196
164 383
164 1157
165 197
165 230
165 847
165 848
165 911
166 198
166 385
166 1159
167 199
167 232
167 849
167 850
167 913
168 200
168 387
168 1161
169 201
169 234
169 851
169 852
169 915
170 202
170 389
170 1163
171 203
171 236
171 853
171 854
171 917
172 204
172 391
172 1165
173 205
173 238
173 855
173 856
173 919
174 206
174 393
174 1167
175 207
175 240
175 857
175 858
175 921
176 208
176 395
176 1169
177 209
177 242
177 859
177 860
177 923
178 210
178 397
178 1171
179 211
179 244
179 861
179 862
179 925
180 212
180 399
180 1173
181 213
181 246
181 863
181 864
181 927
182 214
182 401
182 1175
183 215
183 248
183 865
183 866
183 929
184 216
184 403
184 1177
185 217
185 250
185 867
185 868
185 931
186 218
186 405
186 1179
187 219
187 252
187 869
187 870
187 933
188 220
188 407
188 1181
189 221
189 254
189 871
189 872
189 935
190 222
190 409
190 1183
191 223
191 256
191 873
191 874
191 937
192 224
192 411
192 1185
193 225
193 258
193 875
193 876
193 939
194 226
194 413
194 1187
195 228
195 877
195 878
195 910
196 383
196 1158
197 230
197 879
197 880
197 912
198 385
198 1160
199 232
199 881
199 882
199 914
200 387
200 1162
201 234
201 883
201 884
201 916
202 389
202 1164
203 236
203 885
203 886
203 918
204 391
204 1166
205 238
205 887
205 888
205 920
206 393
206 1168
207 240
207 889
207 890
207 922
208 395
208 1170
209 242
209 891
209 892
209 924
210 397
210 1172
211 244
211 893
211 894
211 926
212 399
212 1174
213 246
213 895
213 896
213 928
214 401
214 1176
215 248
215 897
215 898
215 930
216 403
216 1178
217 250
217 899
217 900
217 932
218 405
218 1180
219 252
219 901
219 902
219 934
220 407
220 1182
221 254
221 903
221 904
221 936
222 409
222 1184
223 256
223 905
223 906
223 938
224 411
224 1186
225 258
225 907
225 908
225 940
226 413
226 1188
227 243
227 260
227 909
227 910
227 941
228 244
228 325
228 1057
229 245
229 262
229 911
229 912
229 943
230 246
230 327
230 1059
231 247
231 264
231 913
231 914
231 945
232 248
232 329
232 1061
233 249
233 266
233 915
233 916
233 947
234 250
234 331
234 1063
235 251
235 268
235 917
235 918
235 949
236 252
236 333
236 1065
237 253
237 270
237 919
237 920
237 951
238 254
238 335
238 1067
239 255
239 272
239 921
239 922
239 953
240 256
240 337
240 1069
241 257
241 274
241 923
241 924
241 955
242 258
242 339
242 1071
243 260
243 925
243 926
243 942
244 325
244 1058
245 262
245 927
245 928
245 944
246 327
246 1060
247 264
247 929
247 930
247 946
248 329
248 1062
249 266
249 931
249 932
249 948
250 331
250 1064
251 268
251 933
251 934
251 950
252 333
252 1066
253 270
253 935
253 936
253 952
254 335
254 1068
255 272
255 937
255 938
255 954
256 337
256 1070
257 274
257 939
257 940
257 956
258 339
258 1072
259 261
259 276
259 941
259 942
259 957
260 262
260 299
260 1000
261 276
261 943
261 944
261 958
262 299
262 1001
263 265
263 278
263 945
263 946
263 959
264 266
264 301
264 1002
265 278
265 947
265 948
265 960
266 301
266 1003
267 269
267 284
267 949
267 950
267 968
268 270
268 307
268 1011
269 284
269 951
269 952
269 969
270 307
270 1012
271 273
271 286
271 953
271 954
271 970
272 274
272 309
272 1013
273 286
273 955
273 956
273 971
274 309
274 1014
275 277
275 278
275 957
275 958
275 962
275 964
275 966
276 277
276 278
276 282
276 965
276 967
277 959
277 960
277 961
277 964
277 967
278 282
278 963
278 966
279 287
279 288
279 289
279 290
279 961
279 962
279 980
279 983
279 987
279 991
280 287
280 288
280 289
280 290
280 963
280 964
280 965
280 981
280 984
280 988
280 992
280 995
281 287
281 288
281 289
281 290
281 966
281 967
281 985
281 989
281 993
281 996
281 998
282 287
282 288
282 289
282 290
282 297
282 990
282 994
282 997
282 999
283 285
283 286
283 968
283 969
283 973
283 975
283 977
284 285
284 286
284 290
284 976
284 978
285 970
285 971
285 972
285 975
285 978
286 290
286 974
286 977
287 972
287 973
287 980
287 984
287 989
287 994
288 974
288 975
288 976
288 979
288 983
288 988
288 993
288 997
289 977
289 978
289 982
289 987
289 992
289 996
289 999
290 297
290 986
290 991
290 995
290 998
291 314
291 979
291 980
291 981
291 1036
292 314
292 315
292 982
292 983
292 984
292 985
292 1037
292 1039
292 1041
293 314
293 315
293 316
293 986
293 987
293 988
293 989
293 990
293 1040
293 1042
293 1045
293 1048
294 314
294 315
294 316
294 991
294 992
294 993
294 994
294 1043
294 1046
294 1049
294 1053
295 314
295 315
295 995
295 996
295 997
295 1047
295 1050
295 1054
296 314
296 998
296 999
296 1051
296 1055
297 1056
298 300
298 301
298 1000
298 1001
298 1005
298 1007
298 1009
299 300
299 301
299 305
299 1008
299 1010
300 1002
300 1003
300 1004
300 1007
300 1010
301 305
301 1006
301 1009
302 310
302 311
302 312
302 1004
302 1005
302 1023
302 1025
302 1028
302 1032
303 310
303 311
303 1006
303 1007
303 1008
303 1026
303 1029
303 1033
304 310
304 1009
304 1010
304 1030
304 1034
305 1035
306 308
306 309
306 1011
306 1012
306 1016
306 1018
306 1020
307 308
307 309
307 313
307 1019
307 1021
308 1013
308 1014
308 1015
308 1018
308 1021
309 313
309 1017
309 1020
310 1015
310 1016
310 1022
310 1025
310 1029
310 1034
311 1017
311 1018
311 1019
311 1024
311 1028
311 1033
312 1020
312 1021
312 1027
312 1032
313 1031
314 1022
314 1023
314 1036
314 1039
314 1042
314 1046
314 1050
314 1055
315 1024
315 1025
315 1026
315 1038
315 1041
315 1045
315 1049
315 1054
316 1027
316 1028
316 1029
316 1030
316 1044
316 1048
316 1053
317 1031
317 1032
317 1033
317 1034
317 1035
317 1052
318 376
318 1036
318 1037
318 1141
319 356
319 376
319 377
319 1038
319 1039
319 1040
319 1142
319 1145
319 1148
320 356
320 376
320 377
320 1041
320 1042
320 1043
320 1143
320 1146
320 1149
320 1153
321 356
321 376
321 1044
321 1045
321 1046
321 1047
321 1147
321 1150
321 1154
322 356
322 1048
322 1049
322 1050
322 1051
322 1151
322 1155
323 1052
323 1053
323 1054
323 1055
323 1056
323 1156
324 326
324 341
324 1057
324 1058
324 1073
325 327
325 1109
325 1111
326 341
326 1059
326 1060
326 1074
327 1110
327 1111
328 330
328 343
328 1061
328 1062
328 1075
329 331
329 363
329 1112
330 343
330 1063
330 1064
330 1076
331 363
331 1113
332 334
332 349
332 1065
332 1066
332 1084
333 335
333 1119
333 1121
334 349
334 1067
334 1068
334 1085
335 1120
335 1121
336 338
336 351
336 1069
336 1070
336 1086
337 339
337 369
337 1122
338 351
338 1071
338 1072
338 1087
339 369
339 1123
340 342
340 343
340 1073
340 1074
340 1078
340 1080
340 1082
341 342
341 343
341 347
341 1081
341 1083
342 1075
342 1076
342 1077
342 1080
342 1083
343 347
343 1079
343 1082
344 352
344 353
344 354
344 1077
344 1078
344 1096
344 1098
344 1101
344 1105
345 352
345 353
345 1079
345 1080
345 1081
345 1099
345 1102
345 1106
346 352
346 1082
346 1083
346 1103
346 1107
347 1108
348 350
348 351
348 1084
348 1085
348 1089
348 1091
348 1093
349 350
349 351
349 355
349 1092
349 1094
350 1086
350 1087
350 1088
350 1091
350 1094
351 355
351 1090
351 1093
352 1088
352 1089
352 1095
352 1098
352 1102
352 1107
353 1090
353 1091
353 1092
353 1097
353 1101
353 1106
354 1093
354 1094
354 1100
354 1105
355 1104
356 1095
356 1096
356 1142
356 1146
356 1150
356 1155
357 374
357 377
357 1097
357 1098
357 1099
357 1139
358 372
358 1100
358 1101
358 1102
358 1103
358 1135
358 1136
359 1104
359 1105
359 1106
359 1107
359 1108
359 1137
360 362
360 1109
360 1110
360 1114
360 1116
361 1111
361 1117
361 1118
362 1112
362 1113
362 1115
362 1116
363 1117
364 370
364 1114
364 1115
364 1129
364 1131
365 1116
365 1118
365 1132
365 1133
366 368
366 1119
366 1120
366 1124
366 1126
367 1121
367 1127
367 1128
368 1122
368 1123
368 1125
368 1126
369 1127
370 1124
370 1125
370 1130
370 1131
371 1126
371 1128
371 1132
372 1129
372 1130
372 1134
372 1136
373 1131
373 1133
373 1137
373 1140
374 377
374 1134
374 1135
374 1138
375 1136
375 1140
375 1152
376 1138
376 1139
376 1141
376 1145
376 1149
376 1154
377 1144
377 1148
377 1153
378 501
378 1141
378 1142
378 1143
378 1336
379 500
379 1144
379 1145
379 1146
379 1147
379 1337
380 446
380 1148
380 1149
380 1150
380 1151
380 1338
381 1152
381 1153
381 1154
381 1155
381 1156
381 1339
382 398
382 415
382 1157
382 1158
382 1189
383 385
383 1273
383 1275
384 400
384 417
384 1159
384 1160
384 1191
385 1274
385 1275
386 402
386 419
386 1161
386 1162
386 1193
387 389
387 471
387 1276
388 404
388 421
388 1163
388 1164
388 1195
389 471
389 1277
390 406
390 423
390 1165
390 1166
390 1197
391 393
391 1283
391 1285
392 408
392 425
392 1167
392 1168
392 1199
393 1284
393 1285
394 410
394 427
394 1169
394 1170
394 1201
395 397
395 477
395 1286
396 412
396 429
396 1171
396 1172
396 1203
397 477
397 1287
398 415
398 1173
398 1174
398 1190
399 401
399 1298
399 1300
400 417
400 1175
400 1176
400 1192
401 1299
401 1300
402 419
402 1177
402 1178
402 1194
403 405
403 485
403 1301
404 421
404 1179
404 1180
404 1196
405 485
405 1302
406 423
406 1181
406 1182
406 1198
407 409
407 1308
407 1310
408 425
408 1183
408 1184
408 1200
409 1309
409 1310
410 427
410 1185
410 1186
410 1202
411 413
411 491
411 1311
412 429
412 1187
412 1188
412 1204
413 491
413 1312
414 416
414 431
414 1189
414 1190
414 1205
415 417
415 1241
415 1243
416 431
416 1191
416 1192
416 1206
417 1242
417 1243
418 420
418 433
418 1193
418 1194
418 1207
419 421
419 453
419 1244
420 433
420 1195
420 1196
420 1208
421 453
421 1245
422 424
422 439
422 1197
422 1198
422 1216
423 425
423 1251
423 1253
424 439
424 1199
424 1200
424 1217
425 1252
425 1253
426 428
426 441
426 1201
426 1202
426 1218
427 429
427 459
427 1254
428 441
428 1203
428 1204
428 1219
429 459
429 1255
430 432
430 433
430 1205
430 1206
430 1210
430 1212
430 1214
431 432
431 433
431 437
431 1213
431 1215
432 1207
432 1208
432 1209
432 1212
432 1215
433 437
433 1211
433 1214
434 442
434 443
434 444
434 1209
434 1210
434 1228
434 1230
434 1233
434 1237
435 442
435 443
435 1211
435 1212
435 1213
435 1231
435 1234
435 1238
436 442
436 1214
436 1215
436 1235
436 1239
437 1240
438 440
438 441
438 1216
438 1217
438 1221
438 1223
438 1225
439 440
439 441
439 445
439 1224
439 1226
440 1218
440 1219
440 1220
440 1223
440 1226
441 445
441 1222
441 1225
442 1220
442 1221
442 1227
442 1230
442 1234
442 1239
443 1222
443 1223
443 1224
443 1229
443 1233
443 1238
444 1225
444 1226
444 1232
444 1237
445 1236
446 1227
446 1228
446 1338
447 464
447 467
447 1229
447 1230
447 1231
447 1271
448 462
448 1232
448 1233
448 1234
448 1235
448 1267
448 1268
449 1236
449 1237
449 1238
449 1239
449 1240
449 1269
450 452
450 1241
450 1242
450 1246
450 1248
451 1243
451 1249
451 1250
452 1244
452 1245
452 1247
452 1248
453 1249
454 460
454 1246
454 1247
454 1261
454 1263
455 1248
455 1250
455 1264
455 1265
456 458
456 1251
456 1252
456 1256
456 1258
457 1253
457 1259
457 1260
458 1254
458 1255
458 1257
458 1258
459 1259
460 1256
460 1257
460 1262
460 1263
461 1258
461 1260
461 1264
462 1261
462 1262
462 1266
462 1268
463 1263
463 1265
463 1269
463 1272
464 467
464 1266
464 1267
464 1270
465 1268
465 1272
465 1331
466 498
466 501
466 1270
466 1271
466 1333
467 496
467 1329
467 1330
468 470
468 1273
468 1274
468 1278
468 1280
469 1275
469 1281
469 1282
470 1276
470 1277
470 1279
470 1280
471 1281
472 478
472 1278
472 1279
472 1293
472 1295
473 1280
473 1282
473 1296
473 1297
474 476
474 1283
474 1284
474 1288
474 1290
475 1285
475 1291
475 1292
476 1286
476 1287
476 1289
476 1290
477 1291
478 1288
478 1289
478 1294
478 1295
479 1290
479 1292
479 1296
480 494
480 1293
480 1294
480 1323
480 1325
481 1295
481 1297
481 1326
481 1327
482 484
482 1298
482 1299
482 1303
482 1305
483 1300
483 1306
483 1307
484 1301
484 1302
484 1304
484 1305
485 1306
486 492
486 1303
486 1304
486 1318
486 1320
487 1305
487 1307
487 1321
487 1322
488 490
488 1308
488 1309
488 1313
488 1315
489 1310
489 1316
489 1317
490 1311
490 1312
490 1314
490 1315
491 1316
492 1313
492 1314
492 1319
492 1320
493 1315
493 1317
493 1321
494 1318
494 1319
494 1324
494 1325
495 1320
495 1322
495 1326
496 1323
496 1324
496 1328
496 1330
497 1325
497 1327
497 1331
497 1334
498 501
498 1328
498 1329
498 1332
499 1330
499 1334
499 1335
500 1332
500 1333
500 1337
501 1336
502 1335
502 1336
502 1337
502 1338
502 1339
503 535
503 568
503 1340
503 1341
503 1404
504 536
504 725
504 1661
505 537
505 570
505 1342
505 1343
505 1406
506 538
506 727
506 1663
507 539
507 572
507 1344
507 1345
507 1408
508 540
508 729
508 1665
509 541
509 574
509 1346
509 1347
509 1410
510 542
510 731
510 1667
511 543
511 576
511 1348
511 1349
511 1412
512 544
512 733
512 1669
513 545
513 578
513 1350
513 1351
513 1414
514 546
514 735
514 1671
515 547
515 580
515 1352
515 1353
515 1416
516 548
516 737
516 1673
517 549
517 582
517 1354
517 1355
517 1418
518 550
518 739
518 1675
519 551
519 584
519 1356
519 1357
519 1420
520 552
520 741
520 1677
521 553
521 586
521 1358
521 1359
521 1422
522 554
522 743
522 1679
523 555
523 588
523 1360
523 1361
523 1424
524 556
524 745
524 1681
525 557
525 590
525 1362
525 1363
525 1426
526 558
526 747
526 1683
527 559
527 592
527 1364
527 1365
527 1428
528 560
528 749
528 1685
529 561
529 594
529 1366
529 1367
529 1430
530 562
530 751
530 1687
531 563
531 596
531 1368
531 1369
531 1432
532 564
532 753
532 1689
533 565
533 598
533 1370
533 1371
533 1434
534 566
534 755
534 1691
535 568
535 1372
535 1373
535 1405
536 725
536 1662
537 570
537 1374
537 1375
537 1407
538 727
538 1664
539 572
539 1376
539 1377
539 1409
540 729
540 1666
541 574
541 1378
541 1379
541 1411
542 731
542 1668
543 576
543 1380
543 1381
543 1413
544 733
544 1670
545 578
545 1382
545 1383
545 1415
546 735
546 1672
547 580
547 1384
547 1385
547 1417
548 737
548 1674
549 582
549 1386
549 1387
549 1419
550 739
550 1676
551 584
551 1388
551 1389
551 1421
552 741
552 1678
553 586
553 1390
553 1391
553 1423
554 743
554 1680
555 588
555 1392
555 1393
555 1425
556 745
556 1682
557 590
557 1394
557 1395
557 1427
558 747
558 1684
559 592
559 1396
559 1397
559 1429
560 749
560 1686
561 594
561 1398
561 1399
561 1431
562 751
562 1688
563 596
563 1400
563 1401
563 1433
564 753
564 1690
565 598
565 1402
565 1403
565 1435
566 755
566 1692
567 583
567 600
567 1404
567 1405
567 1436
568 584
568 666
568 1556
569 585
569 602
569 1406
569 1407
569 1438
570 586
570 668
570 1558
571 587
571 604
571 1408
571 1409
571 1440
572 588
572 670
572 1560
573 589
573 606
573 1410
573 1411
573 1442
574 590
574 672
574 1562
575 591
575 608
575 1412
575 1413
575 1444
576 592
576 674
576 1564
577 593
577 610
577 1414
577 1415
577 1446
578 594
578 676
578 1566
579 595
579 612
579 1416
579 1417
579 1448
580 596
580 678
580 1568
581 597
581 614
581 1418
581 1419
581 1450
582 598
582 680
582 1570
583 600
583 1420
583 1421
583 1437
584 666
584 1557
585 602
585 1422
585 1423
585 1439
586 668
586 1559
587 604
587 1424
587 1425
587 1441
588 670
588 1561
589 606
589 1426
589 1427
589 1443
590 672
590 1563
591 608
591 1428
591 1429
591 1445
592 674
592 1565
593 610
593 1430
593 1431
593 1447
594 676
594 1567
595 612
595 1432
595 1433
595 1449
596 678
596 1569
597 614
597 1434
597 1435
597 1451
598 680
598 1571
599 601
599 616
599 1436
599 1437
599 1452
600 602
600 639
600 1495
601 616
601 1438
601 1439
601 1453
602 639
602 1496
603 605
603 618
603 1440
603 1441
603 1454
604 606
604 641
604 1497
605 618
605 1442
605 1443
605 1455
606 641
606 1498
607 609
607 624
607 1444
607 1445
607 1463
608 610
608 647
608 1506
609 624
609 1446
609 1447
609 1464
610 647
610 1507
611 613
611 626
611 1448
611 1449
611 1465
612 614
612 649
612 1508
613 626
613 1450
613 1451
613 1466
614 649
614 1509
615 617
615 618
615 1452
615 1453
615 1457
615 1459
615 1461
616 617
616 618
616 622
616 1460
616 1462
617 1454
617 1455
617 1456
617 1459
617 1462
618 622
618 1458
618 1461
619 627
619 628
619 629
619 630
619 1456
619 1457
619 1475
619 1478
619 1482
619 1486
620 627
620 628
620 629
620 630
620 1458
620 1459
620 1460
620 1476
620 1479
620 1483
620 1487
620 1490
621 627
621 628
621 629
621 630
621 1461
621 1462
621 1480
621 1484
621 1488
621 1491
621 1493
622 627
622 628
622 629
622 630
622 637
622 1485
622 1489
622 1492
622 1494
623 625
623 626
623 1463
623 1464
623 1468
623 1470
623 1472
624 625
624 626
624 630
624 1471
624 1473
625 1465
625 1466
625 1467
625 1470
625 1473
626 630
626 1469
626 1472
627 1467
627 1468
627 1475
627 1479
627 1484
627 1489
628 1469
628 1470
628 1471
628 1474
628 1478
628 1483
628 1488
628 1492
629 1472
629 1473
629 1477
629 1482
629 1487
629 1491
629 1494
630 637
630 1481
630 1486
630 1490
630 1493
631 654
631 1474
631 1475
631 1476
631 1531
632 654
632 655
632 1477
632 1478
632 1479
632 1480
632 1532
632 1534
632 1536
633 654
633 655
633 656
633 1481
633 1482
633 1483
633 1484
633 1485
633 1535
633 1537
633 1540
633 1543
634 654
634 655
634 656
634 657
634 1486
634 1487
634 1488
634 1489
634 1538
634 1541
634 1544
634 1548
634 1552
635 654
635 655
635 656
635 1490
635 1491
635 1492
635 1542
635 1545
635 1549
635 1553
636 654
636 655
636 1493
636 1494
636 1546
636 1550
636 1554
637 654
637 1551
637 1555
638 640
638 641
638 1495
638 1496
638 1500
638 1502
638 1504
639 640
639 641
639 645
639 1503
639 1505
640 1497
640 1498
640 1499
640 1502
640 1505
641 645
641 1501
641 1504
642 650
642 651
642 652
642 1499
642 1500
642 1518
642 1520
642 1523
642 1527
643 650
643 651
643 1501
643 1502
643 1503
643 1521
643 1524
643 1528
644 650
644 1504
644 1505
644 1525
644 1529
645 1530
646 648
646 649
646 1506
646 1507
646 1511
646 1513
646 1515
647 648
647 649
647 653
647 1514
647 1516
648 1508
648 1509
648 1510
648 1513
648 1516
649 653
649 1512
649 1515
650 1510
650 1511
650 1517
650 1520
650 1524
650 1529
651 1512
651 1513
651 1514
651 1519
651 1523
651 1528
652 1515
652 1516
652 1522
652 1527
653 1526
654 1517
654 1518
654 1531
654 1534
654 1537
654 1541
654 1545
654 1550
654 1555
655 1519
655 1520
655 1521
655 1533
655 1536
655 1540
655 1544
655 1549
655 1554
656 1522
656 1523
656 1524
656 1525
656 1539
656 1543
656 1548
656 1553
657 1526
657 1527
657 1528
657 1529
657 1530
657 1547
657 1552
658 717
658 1531
658 1532
658 1640
659 697
659 717
659 718
659 1533
659 1534
659 1535
659 1641
659 1644
659 1647
660 697
660 716
660 717
660 718
660 1536
660 1537
660 1538
660 1642
660 1645
660 1648
660 1652
660 1656
661 697
661 717
661 718
661 1539
661 1540
661 1541
661 1542
661 1646
661 1649
661 1653
661 1657
662 697
662 717
662 1543
662 1544
662 1545
662 1546
662 1650
662 1654
662 1658
663 697
663 1547
663 1548
663 1549
663 1550
663 1551
663 1655
663 1659
664 1552
664 1553
664 1554
664 1555
664 1660
665 667
665 682
665 1556
665 1557
665 1572
666 668
666 1608
666 1610
667 682
667 1558
667 1559
667 1573
668 1609
668 1610
669 671
669 684
669 1560
669 1561
669 1574
670 672
670 704
670 1611
671 684
671 1562
671 1563
671 1575
672 704
672 1612
673 675
673 690
673 1564
673 1565
673 1583
674 676
674 1618
674 1620
675 690
675 1566
675 1567
675 1584
676 1619
676 1620
677 679
677 692
677 1568
677 1569
677 1585
678 680
678 710
678 1621
679 692
679 1570
679 1571
679 1586
680 710
680 1622
681 683
681 684
681 1572
681 1573
681 1577
681 1579
681 1581
682 683
682 684
682 688
682 1580
682 1582
683 1574
683 1575
683 1576
683 1579
683 1582
684 688
684 1578
684 1581
685 693
685 694
685 695
685 1576
685 1577
685 1595
685 1597
685 1600
685 1604
686 693
686 694
686 1578
686 1579
686 1580
686 1598
686 1601
686 1605
687 693
687 1581
687 1582
687 1602
687 1606
688 1607
689 691
689 692
689 1583
689 1584
689 1588
689 1590
689 1592
690 691
690 692
690 696
690 1591
690 1593
691 1585
691 1586
691 1587
691 1590
691 1593
692 696
692 1589
692 1592
693 1587
693 1588
693 1594
693 1597
693 1601
693 1606
694 1589
694 1590
694 1591
694 1596
694 1600
694 1605
695 1592
695 1593
695 1599
695 1604
696 1603
697 1594
697 1595
697 1641
697 1645
697 1649
697 1654
697 1659
698 715
698 718
698 1596
698 1597
698 1598
698 1638
699 713
699 1599
699 1600
699 1601
699 1602
699 1634
699 1635
700 1603
700 1604
700 1605
700 1606
700 1607
700 1636
701 703
701 1608
701 1609
701 1613
701 1615
702 1610
702 1616
702 1617
703 1611
703 1612
703 1614
703 1615
704 1616
705 711
705 1613
705 1614
705 1628
705 1630
706 1615
706 1617
706 1631
706 1632
707 709
707 1618
707 1619
707 1623
707 1625
708 1620
708 1626
708 1627
709 1621
709 1622
709 1624
709 1625
710 1626
711 1623
711 1624
711 1629
711 1630
712 1625
712 1627
712 1631
713 1628
713 1629
713 1633
713 1635
714 1630
714 1632
714 1636
714 1639
715 718
715 1633
715 1634
715 1637
716 1635
716 1639
716 1651
716 1656
717 1637
717 1638
717 1640
717 1644
717 1648
717 1653
717 1658
718 1643
718 1647
718 1652
718 1657
719 841
719 1640
719 1641
719 1642
719 1839
720 843
720 1643
720 1644
720 1645
720 1646
720 1840
721 842
721 1647
721 1648
721 1649
721 1650
721 1841
722 788
722 1651
722 1652
722 1653
722 1654
722 1655
722 1842
723 1656
723 1657
723 1658
723 1659
723 1660
723 1843
724 740
724 757
724 1661
724 1662
724 1693
725 727
725 1777
725 1779
726 742
726 759
726 1663
726 1664
726 1695
727 1778
727 1779
728 744
728 761
728 1665
728 1666
728 1697
729 731
729 813
729 1780
730 746
730 763
730 1667
730 1668
730 1699
731 813
731 1781
732 748
732 765
732 1669
732 1670
732 1701
733 735
733 1787
733 1789
734 750
734 767
734 1671
734 1672
734 1703
735 1788
735 1789
736 752
736 769
736 1673
736 1674
736 1705
737 739
737 819
737 1790
738 754
738 771
738 1675
738 1676
738 1707
739 819
739 1791
740 757
740 1677
740 1678
740 1694
741 743
741 1802
741 1804
742 759
742 1679
742 1680
742 1696
743 1803
743 1804
744 761
744 1681
744 1682
744 1698
745 747
745 827
745 1805
746 763
746 1683
746 1684
746 1700
747 827
747 1806
748 765
748 1685
748 1686
748 1702
749 751
749 1812
749 1814
750 767
750 1687
750 1688
750 1704
751 1813
751 1814
752 769
752 1689
752 1690
752 1706
753 755
753 833
753 1815
754 771
754 1691
754 1692
754 1708
755 833
755 1816
756 758
756 773
756 1693
756 1694
756 1709
757 759
757 1745
757 1747
758 773
758 1695
758 1696
758 1710
759 1746
759 1747
760 762
760 775
760 1697
760 1698
760 1711
761 763
761 795
761 1748
762 775
762 1699
762 1700
762 1712
763 795
763 1749
764 766
764 781
764 1701
764 1702
764 1720
765 767
765 1755
765 1757
766 781
766 1703
766 1704
766 1721
767 1756
767 1757
768 770
768 783
768 1705
768 1706
768 1722
769 771
769 801
769 1758
770 783
770 1707
770 1708
770 1723
771 801
771 1759
772 774
772 775
772 1709
772 1710
772 1714
772 1716
772 1718
773 774
773 775
773 779
773 1717
773 1719
774 1711
774 1712
774 1713
774 1716
774 1719
775 779
775 1715
775 1718
776 784
776 785
776 786
776 1713
776 1714
776 1732
776 1734
776 1737
776 1741
777 784
777 785
777 1715
777 1716
777 1717
777 1735
777 1738
777 1742
778 784
778 1718
778 1719
778 1739
778 1743
779 1744
780 782
780 783
780 1720
780 1721
780 1725
780 1727
780 1729
781 782
781 783
781 787
781 1728
781 1730
782 1722
782 1723
782 1724
782 1727
782 1730
783 787
783 1726
783 1729
784 1724
784 1725
784 1731
784 1734
784 1738
784 1743
785 1726
785 1727
785 1728
785 1733
785 1737
785 1742
786 1729
786 1730
786 1736
786 1741
787 1740
788 1731
788 1732
788 1842
789 806
789 809
789 1733
789 1734
789 1735
789 1775
790 804
790 1736
790 1737
790 1738
790 1739
790 1771
790 1772
791 1740
791 1741
791 1742
791 1743
791 1744
791 1773
792 794
792 1745
792 1746
792 1750
792 1752
793 1747
793 1753
793 1754
794 1748
794 1749
794 1751
794 1752
795 1753
796 802
796 1750
796 1751
796 1765
796 1767
797 1752
797 1754
797 1768
797 1769
798 800
798 1755
798 1756
798 1760
798 1762
799 1757
799 1763
799 1764
800 1758
800 1759
800 1761
800 1762
801 1763
802 1760
802 1761
802 1766
802 1767
803 1762
803 1764
803 1768
804 1765
804 1766
804 1770
804 1772
805 1767
805 1769
805 1773
805 1776
806 809
806 1770
806 1771
806 1774
807 1772
807 1776
807 1835
808 840
808 843
808 1774
808 1775
808 1837
809 838
809 1833
809 1834
810 812
810 1777
810 1778
810 1782
810 1784
811 1779
811 1785
811 1786
812 1780
812 1781
812 1783
812 1784
813 1785
814 820
814 1782
814 1783
814 1797
814 1799
815 1784
815 1786
815 1800
815 1801
816 818
816 1787
816 1788
816 1792
816 1794
817 1789
817 1795
817 1796
818 1790
818 1791
818 1793
818 1794
819 1795
820 1792
820 1793
820 1798
820 1799
821 1794
821 1796
821 1800
822 836
822 1797
822 1798
822 1827
822 1829
823 1799
823 1801
823 1830
823 1831
824 826
824 1802
824 1803
824 1807
824 1809
825 1804
825 1810
825 1811
826 1805
826 1806
826 1808
826 1809
827 1810
828 834
828 1807
828 1808
828 1822
828 1824
829 1809
829 1811
829 1825
829 1826
830 832
830 1812
830 1813
830 1817
830 1819
831 1814
831 1820
831 1821
832 1815
832 1816
832 1818
832 1819
833 1820
834 1817
834 1818
834 1823
834 1824
835 1819
835 1821
835 1825
836 1822
836 1823
836 1828
836 1829
837 1824
837 1826
837 1830
838 1827
838 1828
838 1832
838 1834
839 1829
839 1831
839 1835
839 1838
840 843
840 1832
840 1833
840 1836
841 1834
841 1838
841 1839
842 1836
842 1837
842 1841
843 1840
844 1839
844 1840
844 1841
844 1842
844 1843
845 846
847 848
849 850
851 852
853 854
855 856
857 858
859 860
861 862
863 864
865 866
867 868
869 870
871 872
873 874
875 876
877 878
879 880
881 882
883 884
885 886
887 888
889 890
891 892
893 894
895 896
897 898
899 900
901 902
903 904
905 906
907 908
909 910
911 912
913 914
915 916
917 918
919 920
921 922
923 924
925 926
927 928
929 930
931 932
933 934
935 936
937 938
939 940
941 942
943 944
945 946
947 948
949 950
951 952
953 954
955 956
957 958
959 960
961 962
963 964
963 965
964 965
966 967
968 969
970 971
972 973
974 975
974 976
975 976
977 978
979 980
979 981
980 981
982 983
982 984
982 985
983 984
983 985
984 985
986 987
986 988
986 989
986 990
987 988
987 989
987 990
988 989
988 990
989 990
991 992
991 993
991 994
992 993
992 994
993 994
995 996
995 997
996 997
998 999
1000 1001
1002 1003
1004 1005
1006 1007
1006 1008
1007 1008
1009 1010
1011 1012
1013 1014
1015 1016
1017 1018
1017 1019
1018 1019
1020 1021
1022 1023
1024 1025
1024 1026
1025 1026
1027 1028
1027 1029
1027 1030
1028 1029
1028 1030
1029 1030
1031 1032
1031 1033
1031 1034
1031 1035
1032 1033
1032 1034
1032 1035
1033 1034
1033 1035
1034 1035
1036 1037
1038 1039
1038 1040
1039 1040
1041 1042
1041 1043
1042 1043
1044 1045
1044 1046
1044 1047
1045 1046
1045 1047
1046 1047
1048 1049
1048 1050
1048 1051
1049 1050
1049 1051
1050 1051
1052 1053
1052 1054
1052 1055
1052 1056
1053 1054
1053 1055
1053 1056
1054 1055
1054 1056
1055 1056
1057 1058
1059 1060
1061 1062
1063 1064
1065 1066
1067 1068
1069 1070
1071 1072
1073 1074
1075 1076
1077 1078
1079 1080
1079 1081
1080 1081
1082 1083
1084 1085
1086 1087
1088 1089
1090 1091
1090 1092
1091 1092
1093 1094
1095 1096
1097 1098
1097 1099
1098 1099
1100 1101
1100 1102
1100 1103
1101 1102
1101 1103
1102 1103
1104 1105
1104 1106
1104 1107
1104 1108
1105 1106
1105 1107
1105 1108
1106 1107
1106 1108
1107 1108
1109 1110
1111 1117
1112 1113
1114 1115
1116 1118
1116 1132
1118 1132
1119 1120
1121 1127
1122 1123
1124 1125
1126 1128
1129 1130
1131 1133
1131 1137
1133 1137
1134 1135
1136 1140
1138 1139
1141 1142
1141 1143
1142 1143
1144 1145
1144 1146
1144 1147
1145 1146
1145 1147
1146 1147
1148 1149
1148 1150
1148 1151
1149 1150
1149 1151
1150 1151
1152 1153
1152 1154
1152 1155
1152 1156
1153 1154
1153 1155
1153 1156
1154 1155
1154 1156
1155 1156
1157 1158
1159 1160
1161 1162
1163 1164
1165 1166
1167 1168
1169 1170
1171 1172
1173 1174
1175 1176
1177 1178
1179 1180
1181 1182
1183 1184
1185 1186
1187 1188
1189 1190
1191 1192
1193 1194
1195 1196
1197 1198
1199 1200
1201 1202
1203 1204
1205 1206
1207 1208
1209 1210
1211 1212
1211 1213
1212 1213
1214 1215
1216 1217
1218 1219
1220 1221
1222 1223
1222 1224
1223 1224
1225 1226
1227 1228
1229 1230
1229 1231
1230 1231
1232 1233
1232 1234
1232 1235
1233 1234
1233 1235
1234 1235
1236 1237
1236 1238
1236 1239
1236 1240
1237 1238
1237 1239
1237 1240
1238 1239
1238 1240
1239 1240
1241 1242
1243 1249
1244 1245
1246 1247
1248 1250
1248 1264
1250 1264
1251 1252
1253 1259
1254 1255
1256 1257
1258 1260
1261 1262
1263 1265
1263 1269
1265 1269
1266 1267
1268 1272
1270 1271
1273 1274
1275 1281
1276 1277
1278 1279
1280 1282
1280 1296
1282 1296
1283 1284
1285 1291
1286 1287
1288 1289
1290 1292
1293 1294
1295 1297
1295 1326
1297 1326
1298 1299
1300 1306
1301 1302
1303 1304
1305 1307
1305 1321
1307 1321
1308 1309
1310 1316
1311 1312
1313 1314
1315 1317
1318 1319
1320 1322
1323 1324
1325 1327
1325 1331
1327 1331
1328 1329
1330 1334
1332 1333
1335 1336
1335 1337
1335 1338
1335 1339
1336 1337
1336 1338
1336 1339
1337 1338
1337 1339
1338 1339
1340 1341
1342 1343
1344 1345
1346 1347
1348 1349
1350 1351
1352 1353
1354 1355
1356 1357
1358 1359
1360 1361
1362 1363
1364 1365
1366 1367
1368 1369
1370 1371
1372 1373
1374 1375
1376 1377
1378 1379
1380 1381
1382 1383
1384 1385
1386 1387
1388 1389
1390 1391
1392 1393
1394 1395
1396 1397
1398 1399
1400 1401
1402 1403
1404 1405
1406 1407
1408 1409
1410 1411
1412 1413
1414 1415
1416 1417
1418 1419
1420 1421
1422 1423
1424 1425
1426 1427
1428 1429
1430 1431
1432 1433
1434 1435
1436 1437
1438 1439
1440 1441
1442 1443
1444 1445
1446 1447
1448 1449
1450 1451
1452 1453
1454 1455
1456 1457
1458 1459
1458 1460
1459 1460
1461 1462
1463 1464
1465 1466
1467 1468
1469 1470
1469 1471
1470 1471
1472 1473
1474 1475
1474 1476
1475 1476
1477 1478
1477 1479
1477 1480
1478 1479
1478 1480
1479 1480
1481 1482
1481 1483
1481 1484
1481 1485
1482 1483
1482 1484
1482 1485
1483 1484
1483 1485
1484 1485
1486 1487
1486 1488
1486 1489
1487 1488
1487 1489
1488 1489
1490 1491
1490 1492
1491 1492
1493 1494
1495 1496
1497 1498
1499 1500
1501 1502
1501 1503
1502 1503
1504 1505
1506 1507
1508 1509
1510 1511
1512 1513
1512 1514
1513 1514
1515 1516
1517 1518
1519 1520
1519 1521
1520 1521
1522 1523
1522 1524
1522 1525
1523 1524
1523 1525
1524 1525
1526 1527
1526 1528
1526 1529
1526 1530
1527 1528
1527 1529
1527 1530
1528 1529
1528 1530
1529 1530
1531 1532
1533 1534
1533 1535
1534 1535
1536 1537
1536 1538
1537 1538
1539 1540
1539 1541
1539 1542
1540 1541
1540 1542
1541 1542
1543 1544
1543 1545
1543 1546
1544 1545
1544 1546
1545 1546
1547 1548
1547 1549
1547 1550
1547 1551
1548 1549
1548 1550
1548 1551
1549 1550
1549 1551
1550 1551
1552 1553
1552 1554
1552 1555
1553 1554
1553 1555
1554 1555
1556 1557
1558 1559
1560 1561
1562 1563
1564 1565
1566 1567
1568 1569
1570 1571
1572 1573
1574 1575
1576 1577
1578 1579
1578 1580
1579 1580
1581 1582
1583 1584
1585 1586
1587 1588
1589 1590
1589 1591
1590 1591
1592 1593
1594 1595
1596 1597
1596 1598
1597 1598
1599 1600
1599 1601
1599 1602
1600 1601
1600 1602
1601 1602
1603 1604
1603 1605
1603 1606
1603 1607
1604 1605
1604 1606
1604 1607
1605 1606
1605 1607
1606 1607
1608 1609
1610 1616
1611 1612
1613 1614
1615 1617
1615 1631
1617 1631
1618 1619
1620 1626
1621 1622
1623 1624
1625 1627
1628 1629
1630 1632
1630 1636
1632 1636
1633 1634
1635 1639
1637 1638
1640 1641
1640 1642
1641 1642
1643 1644
1643 1645
1643 1646
1644 1645
1644 1646
1645 1646
1647 1648
1647 1649
1647 1650
1648 1649
1648 1650
1649 1650
1651 1652
1651 1653
1651 1654
1651 1655
1652 1653
1652 1654
1652 1655
1653 1654
1653 1655
1654 1655
1656 1657
1656 1658
1656 1659
1656 1660
1657 1658
1657 1659
1657 1660
1658 1659
1658 1660
1659 1660
1661 1662
1663 1664
1665 1666
1667 1668
1669 1670
1671 1672
1673 1674
1675 1676
1677 1678
1679 1680
1681 1682
1683 1684
1685 1686
1687 1688
1689 1690
1691 1692
1693 1694
1695 1696
1697 1698
1699 1700
1701 1702
1703 1704
1705 1706
1707 1708
1709 1710
1711 1712
1713 1714
1715 1716
1715 1717
1716 1717
1718 1719
1720 1721
1722 1723
1724 1725
1726 1727
1726 1728
1727 1728
1729 1730
1731 1732
1733 1734
1733 1735
1734 1735
1736 1737
1736 1738
1736 1739
1737 1738
1737 1739
1738 1739
1740 1741
1740 1742
1740 1743
1740 1744
1741 1742
1741 1743
1741 1744
1742 1743
1742 1744
1743 1744
1745 1746
1747 1753
1748 1749
1750 1751
1752 1754
1752 1768
1754 1768
1755 1756
1757 1763
1758 1759
1760 1761
1762 1764
1765 1766
1767 1769
1767 1773
1769 1773
1770 1771
1772 1776
1774 1775
1777 1778
1779 1785
1780 1781
1782 1783
1784 1786
1784 1800
1786 1800
1787 1788
1789 1795
1790 1791
1792 1793
1794 1796
1797 1798
1799 1801
1799 1830
1801 1830
1802 1803
1804 1810
1805 1806
1807 1808
1809 1811
1809 1825
1811 1825
1812 1813
1814 1820
1815 1816
1817 1818
1819 1821
1822 1823
1824 1826
1827 1828
1829 1831
1829 1835
1831 1835
1832 1833
1834 1838
1836 1837
1839 1840
1839 1841
1839 1842
1839 1843
1840 1841
1840 1842
1840 1843
1841 1842
1841 1843
1842 1843
